Using license file /home/anupa/gurobi.lic
Academic license - for non-commercial use only
Changed value of parameter NonConvex to 2
   Prev: -1  Min: -1  Max: 2  Default: -1
Parameter NonConvex unchanged
   Value: 2  Min: -1  Max: 2  Default: -1
Parameter NonConvex unchanged
   Value: 2  Min: -1  Max: 2  Default: -1
Parameter NonConvex unchanged
   Value: 2  Min: -1  Max: 2  Default: -1
Parameter NonConvex unchanged
   Value: 2  Min: -1  Max: 2  Default: -1
Parameter NonConvex unchanged
   Value: 2  Min: -1  Max: 2  Default: -1
Parameter NonConvex unchanged
   Value: 2  Min: -1  Max: 2  Default: -1
Parameter NonConvex unchanged
   Value: 2  Min: -1  Max: 2  Default: -1
Changed value of parameter TimeLimit to 120.0
   Prev: inf  Min: 0.0  Max: inf  Default: inf

Gurobi Optimizer version 9.0.0 build v9.0.0rc2 (linux64)
Optimize a model with 1365 rows, 2039 columns and 5915 nonzeros
Model fingerprint: 0x80cb43a9
Model has 24 quadratic constraints
Model has 17 general constraints
Variable types: 2023 continuous, 16 integer (0 binary)
Coefficient statistics:
  Matrix range     [1e-04, 5e+01]
  QMatrix range    [1e+00, 1e+00]
  QLMatrix range   [1e+00, 1e+00]
  Objective range  [1e+00, 1e+00]
  Bounds range     [1e+00, 3e+04]
  RHS range        [7e-01, 5e+01]

---------------------------------------------------------------------------
Multi-objectives: starting optimization with 2 objectives ... 
---------------------------------------------------------------------------

Multi-objectives: applying initial presolve ...
---------------------------------------------------------------------------

Presolve added 0 rows and 58 columns
Presolve removed 30 rows and 0 columns
Presolve time: 0.00s
Presolved: 1431 rows and 2098 columns
---------------------------------------------------------------------------

Multi-objectives: optimize objective 1 (ns) ...
---------------------------------------------------------------------------

Presolve removed 944 rows and 1097 columns
Presolve time: 0.01s
Presolved: 583 rows, 1002 columns, 3287 nonzeros
Presolved model has 24 SOS constraint(s)
Presolved model has 24 bilinear constraint(s)
Variable types: 922 continuous, 80 integer (64 binary)

Root relaxation: objective 1.020408e+01, 462 iterations, 0.00 seconds

    Nodes    |    Current Node    |     Objective Bounds      |     Work
 Expl Unexpl |  Obj  Depth IntInf | Incumbent    BestBd   Gap | It/Node Time

     0     0   10.20408    0   16          -   10.20408      -     -    0s
     0     0   10.20408    0   23          -   10.20408      -     -    0s
     0     0   10.20408    0   14          -   10.20408      -     -    0s
     0     0   10.20408    0   21          -   10.20408      -     -    0s
     0     0   10.20408    0   12          -   10.20408      -     -    0s
     0     0   10.20408    0   19          -   10.20408      -     -    0s
     0     0   10.20408    0   12          -   10.20408      -     -    0s
     0     0   10.20408    0   12          -   10.20408      -     -    0s
     0     2   10.20408    0   12          -   10.20408      -     -    0s
*  544   467              82      16.6710321   10.20408  38.8%  53.4    0s
*  969   604              50      16.3516664   10.20408  37.6%  52.1    0s
* 1197   519              47      14.2857143   10.20408  28.6%  51.6    0s
* 1964   798              90      14.2715493   11.10285  22.2%  44.9    1s
* 2089   816              93      13.9842823   11.10285  20.6%  43.9    1s
* 2091   789              94      13.9106159   11.10285  20.2%  43.8    1s
H 2149   804                      12.5000000   11.10285  11.2%  43.8    1s
* 2548   727              79      12.4190074   11.42857  7.98%  40.4    1s
* 2550   704              80      12.4026471   11.42857  7.85%  40.4    1s
* 3037   747              85      12.3924106   11.42857  7.78%  40.3    1s
* 3040   747              86      12.3759156   11.42857  7.65%  40.3    1s
* 3044   747              87      12.3448462   11.42857  7.42%  40.2    1s
* 3165   747              98      12.0402791   11.42857  5.08%  39.4    1s
* 3171   747              99      11.7110511   11.42857  2.41%  39.3    1s
* 3174   747              99      11.7024434   11.42857  2.34%  39.3    1s
* 4130   743              89      11.5941648   11.42857  1.43%  41.8    1s
* 4258   903              94      11.5676531   11.42857  1.20%  41.8    1s
* 4307   903             107      11.5627963   11.42857  1.16%  41.3    1s
* 4309   903             108      11.5624531   11.42857  1.16%  41.3    1s
* 4311   903             109      11.5624379   11.42857  1.16%  41.3    1s
* 4480   903              92      11.5601265   11.42857  1.14%  40.1    1s
* 4534   903              90      11.5590214   11.42857  1.13%  39.6    1s
* 4539   903              91      11.5477674   11.42857  1.03%  39.6    1s
* 4540   903              90      11.5472526   11.42857  1.03%  39.6    1s
H 5110   974                      11.5338926   11.42857  0.91%  37.0    1s
* 5161   974              97      11.5264021   11.42857  0.85%  36.8    1s
* 5178   974              98      11.5138015   11.42857  0.74%  36.7    1s
* 5434   974              94      11.5049294   11.42857  0.66%  36.2    1s
* 5498   974              90      11.5048551   11.42857  0.66%  35.9    1s
* 5500   974              91      11.5044202   11.42857  0.66%  35.9    1s
* 5501   974              91      11.5044141   11.42857  0.66%  35.9    1s
* 5563   974              93      11.4949638   11.42857  0.58%  35.7    1s
* 5566   974              95      11.4945965   11.42857  0.57%  35.7    1s
* 5647   974             102      11.4599128   11.42857  0.27%  35.4    1s
* 5801   974             110      11.4409284   11.42857  0.11%  34.7    1s
* 6180   777              84      11.4285714   11.42857  0.00%  35.4    1s

Cutting planes:
  MIR: 2
  Flow cover: 5
  RLT: 44
  Relax-and-lift: 2

Explored 7199 nodes (237202 simplex iterations) in 1.99 seconds
Thread count was 12 (of 12 available processors)

Solution count 10: 11.4286 11.4409 11.4599 ... 11.5138

Optimal solution found (tolerance 1.00e-04)
Best objective 1.142857142857e+01, best bound 1.142857142857e+01, gap 0.0000%
---------------------------------------------------------------------------

Multi-objectives: optimize objective 2 (res) ...
---------------------------------------------------------------------------


Loaded user MIP start with objective 704.272

Presolve removed 945 rows and 1098 columns
Presolve time: 0.01s
Presolved: 583 rows, 1000 columns, 3310 nonzeros
Presolved model has 24 bilinear constraint(s)
Variable types: 928 continuous, 72 integer (56 binary)

Root relaxation: objective 6.519300e+02, 618 iterations, 0.01 seconds

    Nodes    |    Current Node    |     Objective Bounds      |     Work
 Expl Unexpl |  Obj  Depth IntInf | Incumbent    BestBd   Gap | It/Node Time

     0     0  651.92996    0   31  704.27185  651.92996  7.43%     -    2s
     0     0  651.92996    0   37  704.27185  651.92996  7.43%     -    2s
     0     0  651.92996    0   36  704.27185  651.92996  7.43%     -    2s
     0     0  651.92996    0   27  704.27185  651.92996  7.43%     -    2s
     0     0  651.92996    0   29  704.27185  651.92996  7.43%     -    2s
     0     0  651.92996    0   42  704.27185  651.92996  7.43%     -    2s
     0     0  651.97470    0   43  704.27185  651.97470  7.43%     -    2s
     0     0  652.18345    0   39  704.27185  652.18345  7.40%     -    2s
     0     0  652.20789    0   38  704.27185  652.20789  7.39%     -    2s
     0     0  652.50741    0   36  704.27185  652.50741  7.35%     -    2s
     0     0  652.58954    0   37  704.27185  652.58954  7.34%     -    2s
     0     0  653.54365    0   41  704.27185  653.54365  7.20%     -    2s
     0     0  653.61377    0   41  704.27185  653.61377  7.19%     -    2s
     0     0  653.99260    0   44  704.27185  653.99260  7.14%     -    2s
H    0     0                     704.2660963  653.99260  7.14%     -    2s
     0     0  654.04796    0   46  704.26610  654.04796  7.13%     -    2s
     0     0  654.24943    0   42  704.26610  654.24943  7.10%     -    2s
     0     0  654.36224    0   41  704.26610  654.36224  7.09%     -    2s
     0     0  655.68344    0   41  704.26610  655.68344  6.90%     -    2s
     0     0  655.71562    0   41  704.26610  655.71562  6.89%     -    2s
     0     0  656.18906    0   42  704.26610  656.18906  6.83%     -    2s
     0     0  656.27743    0   42  704.26610  656.27743  6.81%     -    2s
     0     0  656.56152    0   43  704.26610  656.56152  6.77%     -    2s
     0     0  656.63140    0   45  704.26610  656.63140  6.76%     -    2s
     0     0  656.82556    0   43  704.26610  656.82556  6.74%     -    2s
     0     0  656.84641    0   43  704.26610  656.84641  6.73%     -    2s
     0     0  656.85009    0   43  704.26610  656.85009  6.73%     -    2s
     0     0  656.85351    0   43  704.26610  656.85351  6.73%     -    2s
     0     0  656.85351    0   43  704.26610  656.85351  6.73%     -    2s
     0     0  656.85351    0   42  704.26610  656.85351  6.73%     -    2s
H    0     2                     704.0948680  656.85351  6.71%     -    2s
     0     2  656.85351    0   42  704.09487  656.85351  6.71%     -    2s
*  592   400              46     693.6300494  658.90796  5.01%  21.6    2s
*  599   400              48     693.5888351  658.90796  5.00%  21.3    2s
*  603   400              49     693.5867399  658.90796  5.00%  21.2    2s
*  691   432              49     693.5867027  659.08723  4.97%  23.9    2s
* 1069   525              64     673.3472195  659.40716  2.07%  26.1    2s
* 1070   525              64     673.3466187  659.40716  2.07%  26.1    2s
* 6568  1239              64     673.3466183  663.26308  1.50%  27.8    4s
 11628  1191  673.05741   33    8  673.34662  663.79913  1.42%  24.9    5s

Cutting planes:
  Gomory: 37
  Implied bound: 7
  Projected implied bound: 4
  MIR: 44
  Flow cover: 35
  Inf proof: 1
  RLT: 42
  Relax-and-lift: 3

Explored 23244 nodes (423773 simplex iterations) in 6.38 seconds
Thread count was 12 (of 12 available processors)

Solution count 9: 673.347 673.347 673.347 ... 704.266

Optimal solution found (tolerance 1.00e-04)
Best objective 6.733466182692e+02, best bound 6.733044477843e+02, gap 0.0063%

---------------------------------------------------------------------------
Multi-objectives: solved in 6.39 seconds, solution count 10

--------------------------------------------------
Model update took: 7.915496826171875e-05 seconds
Model optimize took: 6.385362148284912 seconds
--------------------------------------------------

Solution quality statistics for model netmon :
  Maximum violation:
    Bound       : 1.13686838e-13 (mem[12,1])
    Constraint  : 9.30448564e-07
    Integrality : 2.13495888e-12 (cores_sketch_cpu1)

Throughput: 83.32500083324999 Mpps, ns per packet: 12.001200000000003
Resources: 673.3466182691549

Sketch (0) (cm: eps0: 0.000625, del0: 0.05, min_mem: 16.9921875)
Par: 1, Rows: 3
0.000    0.000    0.000    0.000    0.000    0.000    0.000    0.000    0.000    1.000    0.000    0.000    0.000    0.000    0.000    
Total frac: 1.000

Sketch (1) (cm: eps0: 0.000625, del0: 0.05, min_mem: 16.9921875)
Par: 1, Rows: 3
0.000    0.000    0.000    0.000    0.000    0.000    0.000    0.000    0.000    0.000    0.900    0.000    0.000    0.000    0.000    
Total frac: 0.900

Sketch (2) (cm: eps0: 0.000625, del0: 0.05, min_mem: 16.9921875)
Par: 1, Rows: 3
0.000    0.000    0.000    0.000    0.000    0.000    0.000    0.000    0.000    0.000    0.000    0.000    0.000    0.900    0.000    
Total frac: 0.900

Sketch (3) (cm: eps0: 0.000625, del0: 0.05, min_mem: 16.9921875)
Par: 1, Rows: 3
0.000    0.000    0.000    0.000    0.000    0.096    0.300    0.000    0.000    0.000    0.604    0.000    0.700    0.000    0.000    
Total frac: 1.700

Sketch (4) (cm: eps0: 0.000625, del0: 0.05, min_mem: 16.9921875)
Par: 1, Rows: 3
0.000    0.000    0.000    0.000    0.000    0.000    0.000    0.000    0.000    0.000    0.800    0.000    0.000    0.200    0.000    
Total frac: 1.000

Sketch (5) (cm: eps0: 0.000625, del0: 0.05, min_mem: 16.9921875)
Par: 1, Rows: 3
0.000    0.000    0.000    0.000    0.100    0.000    0.603    0.397    0.800    0.000    0.000    0.000    0.000    0.000    0.000    
Total frac: 1.900

Sketch (6) (cm: eps0: 0.000625, del0: 0.05, min_mem: 16.9921875)
Par: 1, Rows: 3
0.000    0.000    0.000    0.000    0.000    0.000    0.000    0.000    0.224    0.200    0.000    0.000    0.576    0.000    0.000    
Total frac: 1.000

Sketch (7) (cm: eps0: 0.000625, del0: 0.05, min_mem: 16.9921875)
Par: 1, Rows: 3
0.000    0.000    0.000    0.000    0.000    0.000    0.000    0.000    0.000    0.000    0.000    0.000    0.000    0.900    0.000    
Total frac: 0.900

Sketch (8) (cm: eps0: 0.000625, del0: 0.05, min_mem: 16.9921875)
Par: 1, Rows: 3
0.000    0.000    0.000    0.000    0.000    0.001    0.000    0.000    0.000    0.000    0.000    0.000    0.000    0.000    0.799    
Total frac: 0.800

Sketch (9) (cm: eps0: 0.000625, del0: 0.05, min_mem: 16.9921875)
Par: 1, Rows: 3
0.000    0.000    0.500    0.000    0.000    0.000    0.000    0.000    0.000    0.000    0.900    0.700    0.200    0.000    0.000    
Total frac: 2.300

Sketch (10) (cm: eps0: 0.000625, del0: 0.05, min_mem: 16.9921875)
Par: 1, Rows: 3
0.000    0.000    0.000    0.000    0.000    0.000    0.000    0.000    0.000    0.000    0.000    0.900    0.000    0.000    1.000    
Total frac: 1.900

Sketch (11) (cm: eps0: 0.000625, del0: 0.05, min_mem: 16.9921875)
Par: 1, Rows: 3
0.000    0.000    0.000    0.000    0.000    0.000    0.000    0.000    0.000    0.000    0.000    0.000    0.900    0.000    0.000    
Total frac: 0.900

Sketch (12) (cm: eps0: 0.000625, del0: 0.05, min_mem: 16.9921875)
Par: 1, Rows: 3
0.000    0.000    0.338    0.562    0.000    0.000    0.000    0.000    0.000    0.000    0.000    0.000    0.000    1.000    0.000    
Total frac: 1.900

Sketch (13) (cm: eps0: 0.000625, del0: 0.05, min_mem: 16.9921875)
Par: 1, Rows: 3
0.000    0.000    0.000    0.000    0.000    0.000    0.000    0.000    0.000    1.000    0.000    0.900    0.000    0.000    1.000    
Total frac: 2.900

Sketch (14) (cm: eps0: 0.000625, del0: 0.05, min_mem: 16.9921875)
Par: 1, Rows: 3
0.000    0.000    0.000    0.000    0.000    0.000    0.000    0.000    0.000    0.000    0.000    0.000    0.000    0.000    0.900    
Total frac: 0.900

Sketch (15) (cm: eps0: 0.000625, del0: 0.05, min_mem: 16.9921875)
Par: 1, Rows: 3
0.000    0.000    0.000    0.000    0.000    0.000    0.000    0.000    0.000    0.900    0.000    0.000    0.000    0.000    0.000    
Total frac: 0.900

Sketch (16) (cm: eps0: 0.000625, del0: 0.05, min_mem: 16.9921875)
Par: 1, Rows: 3
0.000    0.000    0.000    0.000    0.000    0.000    0.000    0.000    0.900    0.000    0.000    0.000    0.000    0.000    1.000    
Total frac: 1.900

Sketch (17) (cm: eps0: 0.000625, del0: 0.05, min_mem: 16.9921875)
Par: 1, Rows: 3
0.000    0.000    0.000    0.000    0.000    0.000    0.000    0.000    0.000    0.000    0.000    0.000    0.000    1.000    0.000    
Total frac: 1.000

Sketch (18) (cm: eps0: 0.000625, del0: 0.05, min_mem: 16.9921875)
Par: 1, Rows: 3
0.000    0.000    0.000    0.000    0.000    0.000    0.000    0.000    0.000    0.000    0.000    0.000    0.000    0.000    0.700    
Total frac: 0.700

Sketch (19) (cm: eps0: 0.000625, del0: 0.05, min_mem: 16.9921875)
Par: 1, Rows: 3
0.003    0.897    0.000    0.000    0.000    0.000    0.000    0.000    0.000    1.000    0.000    0.000    0.000    0.800    0.000    
Total frac: 2.700

Sketch (20) (cm: eps0: 0.000625, del0: 0.05, min_mem: 16.9921875)
Par: 1, Rows: 3
0.000    0.000    0.000    0.000    0.000    0.000    0.000    0.000    0.000    0.000    0.000    0.000    0.000    0.000    1.000    
Total frac: 1.000

Sketch (21) (cm: eps0: 0.000625, del0: 0.05, min_mem: 16.9921875)
Par: 1, Rows: 3
0.000    0.000    0.000    0.000    0.000    0.000    0.000    0.000    0.000    0.000    1.000    0.800    0.000    0.000    0.000    
Total frac: 1.800

Sketch (22) (cm: eps0: 0.000625, del0: 0.05, min_mem: 16.9921875)
Par: 1, Rows: 3
0.000    0.000    0.000    0.000    0.000    0.000    0.000    0.000    0.900    0.100    0.700    0.000    0.000    0.000    0.000    
Total frac: 1.700

Sketch (23) (cm: eps0: 0.000625, del0: 0.05, min_mem: 16.9921875)
Par: 1, Rows: 3
0.000    0.000    0.000    0.000    0.000    0.000    0.000    0.000    0.000    0.000    0.200    0.000    0.700    0.000    0.000    
Total frac: 0.900

Sketch (24) (cm: eps0: 0.000625, del0: 0.05, min_mem: 16.9921875)
Par: 1, Rows: 3
0.000    0.000    0.000    0.000    0.000    0.000    0.000    0.000    0.100    0.800    0.000    0.000    0.000    0.000    0.900    
Total frac: 1.800

Sketch (25) (cm: eps0: 0.000625, del0: 0.05, min_mem: 16.9921875)
Par: 1, Rows: 3
0.000    0.000    0.000    0.000    0.000    0.000    0.000    0.000    0.000    0.000    0.000    1.000    0.000    0.000    0.000    
Total frac: 1.000

Sketch (26) (cm: eps0: 0.000625, del0: 0.05, min_mem: 16.9921875)
Par: 1, Rows: 3
0.000    0.000    0.000    0.000    0.000    0.000    0.000    0.000    0.000    0.000    0.000    0.200    0.800    0.000    0.000    
Total frac: 1.000

Sketch (27) (cm: eps0: 0.000625, del0: 0.05, min_mem: 16.9921875)
Par: 1, Rows: 3
0.000    0.000    0.000    0.000    0.000    0.000    0.000    0.000    0.700    0.100    0.900    0.100    0.000    0.000    0.000    
Total frac: 1.800

Sketch (28) (cm: eps0: 0.000625, del0: 0.05, min_mem: 16.9921875)
Par: 1, Rows: 3
0.000    0.000    0.000    0.000    0.000    0.000    0.000    0.000    0.000    0.900    0.000    0.900    0.000    0.000    0.000    
Total frac: 1.800

Sketch (29) (cm: eps0: 0.000625, del0: 0.05, min_mem: 16.9921875)
Par: 1, Rows: 3
0.000    0.000    0.000    0.000    0.000    0.000    0.000    0.000    0.000    0.000    0.000    0.000    0.700    0.000    0.100    
Total frac: 0.800

Sketch (30) (cm: eps0: 0.000625, del0: 0.05, min_mem: 16.9921875)
Par: 1, Rows: 3
0.000    0.000    0.000    0.000    0.000    0.000    0.000    0.000    0.000    0.900    0.000    0.000    0.000    0.000    0.900    
Total frac: 1.800

Sketch (31) (cm: eps0: 0.000625, del0: 0.05, min_mem: 16.9921875)
Par: 1, Rows: 3
0.000    0.000    0.000    0.000    0.000    0.000    0.000    0.000    0.100    0.900    0.000    0.800    0.000    0.000    0.000    
Total frac: 1.800

Sketch (32) (cm: eps0: 0.000625, del0: 0.05, min_mem: 16.9921875)
Par: 1, Rows: 3
0.000    0.000    0.000    0.000    0.000    0.000    0.000    0.000    0.000    0.700    0.301    0.000    0.000    0.499    0.000    
Total frac: 1.500

Sketch (33) (cm: eps0: 0.000625, del0: 0.05, min_mem: 16.9921875)
Par: 1, Rows: 3
0.000    0.000    0.000    0.000    0.000    0.000    0.000    0.000    0.000    0.000    0.000    0.000    1.000    0.000    0.000    
Total frac: 1.000

Sketch (34) (cm: eps0: 0.000625, del0: 0.05, min_mem: 16.9921875)
Par: 1, Rows: 3
0.000    0.000    0.000    0.000    0.697    0.000    0.038    0.000    0.000    0.800    0.000    0.065    0.000    0.000    0.000    
Total frac: 1.600

Sketch (35) (cm: eps0: 0.000625, del0: 0.05, min_mem: 16.9921875)
Par: 1, Rows: 3
0.000    0.000    0.000    0.000    0.000    0.000    0.000    0.000    0.800    0.000    0.000    0.000    0.000    1.000    0.000    
Total frac: 1.800

Sketch (36) (cm: eps0: 0.000625, del0: 0.05, min_mem: 16.9921875)
Par: 1, Rows: 3
0.000    0.000    0.000    0.000    0.000    0.800    0.000    0.000    0.500    0.500    0.000    0.200    0.000    0.000    0.000    
Total frac: 2.000

Sketch (37) (cm: eps0: 0.000625, del0: 0.05, min_mem: 16.9921875)
Par: 1, Rows: 3
0.000    0.000    0.000    0.235    0.000    0.000    0.000    0.000    0.000    0.000    0.365    0.535    0.465    0.000    0.000    
Total frac: 1.600

Sketch (38) (cm: eps0: 0.000625, del0: 0.05, min_mem: 16.9921875)
Par: 1, Rows: 3
0.000    0.000    0.000    0.200    0.000    0.000    0.000    0.000    0.000    0.000    0.000    0.900    0.700    0.000    0.000    
Total frac: 1.800

Sketch (39) (cm: eps0: 0.000625, del0: 0.05, min_mem: 16.9921875)
Par: 1, Rows: 3
0.000    0.000    0.000    0.000    0.900    0.000    0.000    0.000    0.000    1.000    0.000    0.000    0.000    0.000    0.000    
Total frac: 1.900

Sketch (40) (cm: eps0: 0.000625, del0: 0.05, min_mem: 16.9921875)
Par: 1, Rows: 3
0.000    0.000    0.000    0.000    0.000    0.900    0.000    0.000    0.000    0.000    0.000    0.100    0.900    0.000    0.000    
Total frac: 1.900

Sketch (41) (cm: eps0: 0.000625, del0: 0.05, min_mem: 16.9921875)
Par: 1, Rows: 3
0.080    0.000    0.000    0.000    0.000    0.000    0.000    0.000    0.820    0.000    0.800    0.000    0.000    0.000    0.000    
Total frac: 1.700

Sketch (42) (cm: eps0: 0.000625, del0: 0.05, min_mem: 16.9921875)
Par: 1, Rows: 3
0.900    0.000    0.000    0.000    0.000    0.000    0.000    0.000    0.000    0.000    0.000    0.000    0.000    0.000    1.000    
Total frac: 1.900

Sketch (43) (cm: eps0: 0.000625, del0: 0.05, min_mem: 16.9921875)
Par: 1, Rows: 3
0.000    0.000    0.000    0.000    0.000    0.000    0.000    0.000    0.000    0.000    0.100    0.000    0.900    0.000    0.000    
Total frac: 1.000

Sketch (44) (cm: eps0: 0.000625, del0: 0.05, min_mem: 16.9921875)
Par: 1, Rows: 3
0.000    0.000    0.000    0.000    0.200    0.000    0.000    0.700    0.700    0.000    0.000    0.000    0.000    0.000    0.000    
Total frac: 1.600

Sketch (45) (cm: eps0: 0.000625, del0: 0.05, min_mem: 16.9921875)
Par: 1, Rows: 3
0.000    0.000    0.000    0.000    0.000    0.000    0.042    0.000    0.000    0.000    0.700    0.000    0.958    0.000    0.000    
Total frac: 1.700

Sketch (46) (cm: eps0: 0.000625, del0: 0.05, min_mem: 16.9921875)
Par: 1, Rows: 3
0.000    0.000    0.000    0.000    0.000    0.000    0.000    0.000    0.000    0.000    0.000    0.000    0.000    1.000    0.000    
Total frac: 1.000

Sketch (47) (cm: eps0: 0.000625, del0: 0.05, min_mem: 16.9921875)
Par: 1, Rows: 3
0.000    0.000    0.000    0.000    0.000    0.100    0.000    0.000    0.000    0.000    0.000    0.000    0.800    0.000    0.000    
Total frac: 0.900

Sketch (48) (cm: eps0: 0.000625, del0: 0.05, min_mem: 16.9921875)
Par: 1, Rows: 3
0.000    0.000    0.000    0.000    0.000    0.000    0.000    0.000    0.000    0.000    0.000    0.000    0.000    0.000    1.000    
Total frac: 1.000

Sketch (49) (cm: eps0: 0.000625, del0: 0.05, min_mem: 16.9921875)
Par: 1, Rows: 3
0.000    0.000    0.000    0.000    0.000    0.000    0.000    0.000    0.000    0.000    0.000    0.000    0.000    1.000    0.000    
Total frac: 1.000

Sketch (50) (cm: eps0: 0.000625, del0: 0.05, min_mem: 16.9921875)
Par: 1, Rows: 3
0.000    0.000    0.000    0.000    0.000    0.000    0.000    0.000    0.000    0.000    0.000    1.000    0.000    0.000    0.000    
Total frac: 1.000

Sketch (51) (cm: eps0: 0.000625, del0: 0.05, min_mem: 16.9921875)
Par: 1, Rows: 3
0.000    0.000    0.000    0.000    0.000    0.000    0.000    0.000    0.000    0.000    0.000    0.000    0.000    1.000    0.000    
Total frac: 1.000

Sketch (52) (cm: eps0: 0.000625, del0: 0.05, min_mem: 16.9921875)
Par: 1, Rows: 3
0.000    0.000    0.000    0.000    0.000    0.000    0.000    0.000    0.000    0.000    0.000    0.900    0.800    0.200    0.000    
Total frac: 1.900

Sketch (53) (cm: eps0: 0.000625, del0: 0.05, min_mem: 16.9921875)
Par: 1, Rows: 3
0.000    0.000    0.000    0.900    0.000    0.000    0.000    0.000    0.000    0.000    0.000    0.000    0.000    0.900    0.000    
Total frac: 1.800

Sketch (54) (cm: eps0: 0.000625, del0: 0.05, min_mem: 16.9921875)
Par: 1, Rows: 3
0.000    0.000    -0.000    0.000    0.000    0.000    0.000    0.000    0.501    0.499    0.501    0.499    0.000    0.000    0.000    
Total frac: 2.000

Sketch (55) (cm: eps0: 0.000625, del0: 0.05, min_mem: 16.9921875)
Par: 1, Rows: 3
0.000    0.000    0.000    0.000    0.000    0.000    0.000    0.000    0.000    0.000    0.900    0.000    0.000    0.000    0.000    
Total frac: 0.900

Sketch (56) (cm: eps0: 0.000625, del0: 0.05, min_mem: 16.9921875)
Par: 1, Rows: 3
0.000    1.000    0.000    0.000    0.000    0.000    0.000    0.000    0.000    0.000    0.000    0.000    0.000    0.000    1.000    
Total frac: 2.000

Sketch (57) (cm: eps0: 0.000625, del0: 0.05, min_mem: 16.9921875)
Par: 1, Rows: 3
0.000    0.000    0.000    0.000    0.000    0.000    0.000    0.000    0.800    0.000    0.000    0.000    0.000    0.000    0.000    
Total frac: 0.800

Sketch (58) (cm: eps0: 0.000625, del0: 0.05, min_mem: 16.9921875)
Par: 1, Rows: 3
0.000    0.000    0.000    0.000    0.000    0.000    0.000    0.000    1.000    0.000    0.700    0.000    0.000    0.000    0.000    
Total frac: 1.700

Sketch (59) (cm: eps0: 0.000625, del0: 0.05, min_mem: 16.9921875)
Par: 1, Rows: 3
0.000    0.000    0.145    0.000    0.000    0.000    0.000    0.000    0.755    0.000    0.000    0.000    0.000    0.900    0.000    
Total frac: 1.800

Sketch (60) (cm: eps0: 0.000625, del0: 0.05, min_mem: 16.9921875)
Par: 1, Rows: 3
0.000    0.000    0.000    0.000    0.000    0.000    0.000    0.000    0.000    0.000    0.900    0.000    0.000    0.000    0.000    
Total frac: 0.900

Sketch (61) (cm: eps0: 0.000625, del0: 0.05, min_mem: 16.9921875)
Par: 1, Rows: 3
0.000    0.000    0.000    0.000    0.000    0.000    0.000    0.000    0.000    0.000    0.000    0.000    0.000    0.000    0.000    
Total frac: 0.000

Sketch (62) (cm: eps0: 0.000625, del0: 0.05, min_mem: 16.9921875)
Par: 1, Rows: 3
0.000    0.000    0.000    0.000    0.000    0.000    0.000    0.000    0.800    0.000    0.000    0.800    0.100    0.000    0.000    
Total frac: 1.700

Sketch (63) (cm: eps0: 0.000625, del0: 0.05, min_mem: 16.9921875)
Par: 1, Rows: 3
0.000    0.000    0.000    0.000    0.000    0.000    0.000    0.800    0.900    0.000    0.000    0.000    0.100    0.000    0.000    
Total frac: 1.800

Device (0) cpu1:
cores_sketch: 1.000000000002135, cores_dpdk: 5.0
Rows total: 2.949496647580519
Mem total: 50.1184000663096
Throughput: 83.32500083324999

Device (1) cpu2:
cores_sketch: 2.0, cores_dpdk: 5.0
Rows total: 5.690460668563121
Mem total: 96.69337464159992
Throughput: 83.32500083324999

Device (2) cpu3:
cores_sketch: 1.0, cores_dpdk: 5.0
Rows total: 2.9494966871123784
Mem total: 50.11840073804237
Throughput: 83.32500083324999

Device (3) cpu4:
cores_sketch: 2.0, cores_dpdk: 5.0
Rows total: 5.690460663896766
Mem total: 96.69337456230832
Throughput: 83.32500083324999

Device (4) cpu5:
cores_sketch: 2.0, cores_dpdk: 5.0
Rows total: 5.690460678090328
Mem total: 96.69337480348798
Throughput: 83.32500083324999

Device (5) cpu6:
cores_sketch: 2.0, cores_dpdk: 5.0
Rows total: 5.690460671537646
Mem total: 96.69337469214359
Throughput: 83.32500083324999

Device (6) cpu7:
cores_sketch: 1.0, cores_dpdk: 5.0
Rows total: 2.9494966475744606
Mem total: 50.118400066206654
Throughput: 83.32500083324999

Device (7) cpu8:
cores_sketch: 2.0, cores_dpdk: 5.0
Rows total: 5.690460628447542
Mem total: 96.69337395994846
Throughput: 83.32500083324999

Device (8) tor_p41:
Rows total: 33.89793103448276
Mem total: 576.0
Throughput: 148.0

Device (9) tor_p42:
Rows total: 33.89793103448276
Mem total: 576.0
Throughput: 148.0

Device (10) tor_p43:
Rows total: 33.811620500300684
Mem total: 574.533395219953
Throughput: 148.0

Device (11) tor_p44:
Rows total: 33.89793103448276
Mem total: 576.0
Throughput: 148.0

Device (12) l1_p41:
Rows total: 33.89793103448276
Mem total: 576.0
Throughput: 148.0

Device (13) l1_p42:
Rows total: 33.89793103448276
Mem total: 576.0
Throughput: 148.0

Device (14) l2_p4:
Rows total: 33.89793103448276
Mem total: 576.0
Throughput: 148.0
--------------------------------------------------
